NAME : portgen-30-42
COMMENT : portgen N=30, seed=42
TYPE : TSP
DIMENSION : 30
EDGE_WEIGHT_TYPE : EUC_2D
NODE_COORD_SECTION
1 911625 569979
2 333948 367823
3 64814 694813
4 347971 550710
5 510452 220317
6 80136 368854
7 930264 996356
8 366760 324473
9 665734 7846
10 607614 832006
11 37281 254841
12 649833 233197
13 230510 474465
14 491870 32514
15 204991 949346
16 493953 273092
17 464058 903119
18 311891 93345
19 858958 102024
20 682623 57587
21 379347 366586
22 979217 419002
23 128384 106933
24 472134 401646
25 712918 12605
26 256848 640322
27 673112 695296
28 380812 638533
29 105920 430829
30 55931 971469
